NAME: rue_15_7
TYPE: TSP
DIMENSION: 15
EDGE_WEIGHT_TYPE: EUC_2D
NODE_COORD_SECTION
1 35 12
2 31 31
3 38 30
4 39 17
5 10 15
6 13 19
7 28 25
8 30 8
9 18 17
10 22 24
11 16 10
12 35 13
13 32 21
14 31 31
15 8 24

